data/benchmarks/bayes/90-14-4-q.cnf
p cnf 924 815
c weights 0.560836 0.439164 1 1 1 1 1 1 1 1 1 1 1 1 1 1 1 1 1 1 1 1 1 1 1 1 1 1 1 1 1 1 1 1 1 1 1 1 1 1 1 1 1 1 1 1 1 1 1 1 1 1 1 1 1 1 1 1 1 1 1 1 1 1 1 1 1 1 1 1 1 1 1 1 1 1 1 1 1 1 1 1 1 1 1 1 1 1 1 1 1 1 1 1 1 1 1 1 1 1 1 1 1 1 1 1 1 1 1 1 1 1 1 1 1 1 1 1 1 1 1 1 1 1 1 1 1 1 1 1 1 1 1 1 1 1 1 1 1 1 1 1 1 1 1 1 1 1 1 1 1 1 1 1 1 1 1 1 1 1 1 1 1 1 1 1 1 1 1 1 1 1 1 1 1 1 1 1 1 1 1 1 1 1 1 1 1 1 1 1 1 1 1 1 1 1 1 1 1 1 1 1 1 1 1 1 1 1 1 1 1 1 1 1 1 1 1 1 1 1 1 1 1 1 1 1 1 1 1 1 1 1 1 1 1 1 1 1 1 1 1 1 1 1 1 1 1 1 1 1 1 1 1 1 1 1 1 1 1 1 1 1 1 1 1 1 1 1 1 1 1 1 1 1 1 1 1 1 1 1 1 1 1 1 1 1 1 1 1 1 1 1 1 1 1 1 1 1 1 1 1 1 1 1 1 1 1 1 1 1 1 1 1 1 1 1 1 1 1 1 1 1 1 1 1 1 1 1 1 1 1 1 1 1 1 1 1 1 1 1 1 1 1 1 1 1 1 1 1 1 1 1 1 1 1 1 1 1 1 1 1 1 1 1 1 1 1 1 1 1 1 1 1 1 1 1 1 1 1 1 1 1 1 1 1 1 1 1 1 1 1 1 0.5 0.5 0.5 0.5 0.5 0.5 0.5 0.5 0.5 0.5 0.5 0.5 0.5 0.5 0.5 0.5 0.5 0.5 0.5 0.5 0.5 0.5 0.5 0.5 0.5 0.5 0.5 0.5 0.5 0.5 0.5 0.5 0.5 0.5 0.5 0.5 0.581631 0.418369 0.00657102 0.99342898 0.5 0.5 0.5 0.5 0.5 0.5 0.5 0.5 0.5 0.5 0.5 0.5 0.5 0.5 0.5 0.5 0.5 0.5 0.5 0.5 0.5 0.5 0.5 0.5 0.5 0.5 0.5 0.5 0.5 0.5 0.5 0.5 0.5 0.5 0.5 0.5 0.5 0.5 0.5 0.5 0.5 0.5 0.5 0.5 0.5 0.5 0.5 0.5 0.5 0.5 0.5 0.5 0.5 0.5 0.5 0.5 0.5 0.5 0.5 0.5 0.5 0.5 0.5 0.5 0.5 0.5 0.5 0.5 0.5 0.5 0.5 0.5 0.5 0.5 0.5 0.5 0.5 0.5 0.5 0.5 0.5 0.5 0.5 0.5 0.5 0.5 0.5 0.5 0.5 0.5 0.5 0.5 0.5 0.5 0.5 0.5 0.5 0.5 0.5 0.5 0.5 0.5 0.5 0.5 0.21856 0.78144 0.927171 0.07282900000000003 0.238942 0.761058 0.817123 0.18287699999999996 0.5 0.5 0.5 0.5 0.5 0.5 0.5 0.5 0.5 0.5 0.5 0.5 0.5 0.5 0.5 0.5 0.5 0.5 0.5 0.5 0.5 0.5 0.5 0.5 0.5 0.5 0.5 0.5 0.5 0.5 0.5 0.5 0.5 0.5 0.5 0.5 0.5 0.5 0.5 0.5 0.5 0.5 0.5 0.5 0.5 0.5 0.5 0.5 0.5 0.5 0.5 0.5 0.5 0.5 0.5 0.5 0.5 0.5 0.5 0.5 0.5 0.5 0.5 0.5 0.5 0.5 0.5 0.5 0.5 0.5 0.5 0.5 0.5 0.5 0.5 0.5 0.5 0.5 0.5 0.5 0.5 0.5 0.5 0.5 0.5 0.5 0.5 0.5 0.5 0.5 0.5 0.5 0.5 0.5 0.5 0.5 0.5 0.5 0.5 0.5 0.5 0.5 0.5 0.5 0.5 0.5 0.5 0.5 0.870335 0.12966500000000003 0.831809 0.16819099999999998 0.732105 0.267895 0.928291 0.07170900000000002 0.5 0.5 0.5 0.5 0.5 0.5 0.5 0.5 0.5 0.5 0.5 0.5 0.321265 0.678735 0.656327 0.343673 0.271598 0.728402 0.323675 0.6763250000000001 0.5 0.5 0.5 0.5 0.5 0.5 0.5 0.5 0.5 0.5 0.5 0.5 0.5 0.5 0.5 0.5 0.5 0.5 0.5 0.5 0.5 0.5 0.5 0.5 0.5 0.5 0.5 0.5 0.5 0.5 0.5 0.5 0.5 0.5 0.5 0.5 0.5 0.5 0.5 0.5 0.5 0.5 0.5 0.5 0.5 0.5 0.5 0.5 0.848076 0.15192399999999995 0.628663 0.37133700000000003 0.371904 0.628096 0.416666 0.583334 0.5 0.5 0.5 0.5 0.5 0.5 0.5 0.5 0.5 0.5 0.5 0.5 0.5 0.5 0.5 0.5 0.5 0.5 0.5 0.5 0.5 0.5 0.5 0.5 0.5 0.5 0.5 0.5 0.5 0.5 0.5 0.5 0.5 0.5 0.5 0.5 0.5 0.5 0.5 0.5 0.5 0.5 0.5 0.5 0.5 0.5 0.5 0.5 0.5 0.5 0.5 0.5 0.5 0.5 0.5 0.5 0.5 0.5 0.5 0.5 0.849062 0.15093800000000002 0.0030353 0.9969647 0.544604 0.455396 0.461565 0.538435 0.5 0.5 0.5 0.5 0.5 0.5 0.5 0.5 0.5 0.5 0.5 0.5 0.5 0.5 0.5 0.5 0.826758 0.173242 0.644604 0.35539600000000005 0.584089 0.41591100000000003 0.329773 0.670227 0.5 0.5 0.5 0.5 0.5 0.5 0.5 0.5 0.5 0.5 0.5 0.5 0.5 0.5 0.5 0.5 0.5 0.5 0.5 0.5 0.5 0.5 0.5 0.5 0.5 0.5 0.5 0.5 0.5 0.5 0.5 0.5 0.5 0.5 0.5 0.5 0.5 0.5 0.5 0.5 0.802138 0.19786199999999998 0.600294 0.399706 0.525355 0.474645 0.131911 0.868089 0.5 0.5 0.5 0.5 0.5 0.5 0.5 0.5 0.5 0.5 0.5 0.5 0.506643 0.49335700000000005 0.19364 0.80636 0.187942 0.812058 0.861342 0.13865799999999995 0.417131 0.5828690000000001 0.760645 0.23935499999999998 0.265872 0.734128 0.509746 0.49025399999999997 0.5 0.5 0.5 0.5 0.5 0.5 0.5 0.5 0.5 0.5 0.5 0.5 0.5 0.5 0.5 0.5 0.5 0.5 0.5 0.5 0.5 0.5 0.5 0.5 0.5 0.5 0.5 0.5 0.5 0.5 0.5 0.5 0.5 0.5 0.5 0.5 0.5 0.5 0.5 0.5 0.5 0.5 0.5 0.5 0.5 0.5 0.5 0.5 0.5 0.5 0.5 0.5 0.5 0.5 0.5 0.5 0.5 0.5 0.5 0.5 0.5 0.5 0.5 0.5 0.5 0.5 0.5 0.5 0.5 0.5 0.5 0.5 0.5 0.5 0.5 0.5 0.5 0.5 0.5 0.5 0.5 0.5 0.5 0.5 0.5 0.5 0.5 0.5 0.5 0.5 0.5 0.5 0.853312 0.14668800000000004 0.848781 0.151219 0.205153 0.794847 0.99075 0.00924999999999998 0.5 0.5 0.5 0.5 0.5 0.5 0.5 0.5 0.5 0.5 0.5 0.5 0.5 0.5 0.5 0.5 0.5 0.5 0.5 0.5 0.5 0.5 0.5 0.5 0.5 0.5 0.5 0.5 0.5 0.5 0.5 0.5 0.721703 0.278297 0.402014 0.597986 0.196025 0.803975 0.290801 0.709199 0.5 0.5 0.5 0.5 0.5 0.5 0.5 0.5 0.5 0.5 0.5 0.5 0.5 0.5 0.5 0.5 0.5 0.5 0.5 0.5 0.5 0.5 0.5 0.5 0.84989 0.15010999999999997 0.0182242 0.9817758 0.525395 0.47460500000000005 0.812797 0.187203 0.5 0.5 0.5 0.5 0.5 0.5 0.5 0.5 0.5 0.5 0.5 0.5 0.5 0.5 0.5 0.5 0.5 0.5 0.5 0.5 0.5 0.5 0.5 0.5 0.5 0.5 0.5 0.5 0.5 0.5 0.5 0.5 0.5 0.5 0.5 0.5 0.5 0.5 0.5 0.5 0.5 0.5 0.5 0.5 0.5 0.5 0.5 0.5 0.5 0.5 0.5 0.5 0.5 0.5 0.5 0.5 0.5 0.5 0.5 0.5 0.5 0.5 0.5 0.5 0.5 0.5 0.5 0.5 0.5 0.5 0.5 0.5 0.5 0.5 0.5 0.5 0.5 0.5 0.5 0.5 0.5 0.5 0.5 0.5 0.5 0.5 0.5 0.5 0.5 0.5 0.5 0.5 0.5 0.5 0.5 0.5 0.5 0.5 0.5 0.5 0.627756 0.372244 0.361057 0.638943 0.730412 0.26958800000000005 0.208848 0.791152 0.5 0.5 0.5 0.5 0.5 0.5 0.5 0.5 0.5 0.5 0.5 0.5 0.5 0.5 0.5 0.5 0.5 0.5 0.5 0.5 0.5 0.5 0.5 0.5 0.5 0.5 0.5 0.5 0.5 0.5 0.5 0.5 0.5 0.5 0.5 0.5 0.5 0.5 0.5 0.5 0.5 0.5 0.5 0.5 0.5 0.5 0.5 0.5 0.5 0.5 0.5 0.5 0.5 0.5 0.5 0.5 0.5 0.5 0.5 0.5 0.5 0.5 0.5 0.5 0.5 0.5 0.5 0.5 0.5 0.5 0.5 0.5 0.5 0.5 0.5 0.5 0.0352658 0.9647342 0.866533 0.133467 0.296099 0.703901 0.382814 0.617186 0.5 0.5 0.5 0.5 0.5 0.5 0.5 0.5 0.5 0.5 0.5 0.5 0.5 0.5 0.5 0.5 0.5 0.5 0.5 0.5 0.5 0.5 0.5 0.5 0.5 0.5 0.5 0.5 0.5 0.5 0.5 0.5 0.5 0.5 0.5 0.5 0.5 0.5 0.5 0.5 0.5 0.5 0.5 0.5 0.5 0.5 0.5 0.5 0.5 0.5 0.5 0.5 0.5 0.5 0.5 0.5 0.5 0.5 0.5 0.5 0.5 0.5 0.5 0.5 0.5 0.5 0.5 0.5 0.5 0.5 0.5 0.5 0.5 0.5 0.5 0.5 0.5 0.5 0.5 0.5 0.5 0.5 0.5 0.5 0.5 0.5 0.5 0.5 0.5 0.5 0.5 0.5 0.5 0.5 0.5 0.5 0.5 0.5 0.5 0.5 0.5 0.5 0.5 0.5 0.5 0.5 0.5 0.5 0.985035 0.014965000000000006 0.885022 0.11497800000000002 0.6482 0.3518 0.0506413 0.9493587 0.5 0.5 0.5 0.5 0.5 0.5 0.5 0.5 0.5 0.5 0.5 0.5 0.5 0.5 0.5 0.5 0.5 0.5 0.5 0.5 0.5 0.5 0.5 0.5 0.5 0.5 0.5 0.5 0.5 0.5 0.5 0.5 0.5 0.5 0.5 0.5 0.5 0.5 0.5 0.5 0.5 0.5 0.5 0.5 0.5 0.5 0.5 0.5 0.5 0.5 0.5 0.5 0.5 0.5 0.5 0.5 0.5 0.5 0.5 0.5 0.5 0.5 0.5 0.5 0.5 0.5 0.5 0.5 0.5 0.5 0.5 0.5 0.5 0.5 0.5 0.5 0.5 0.5 0.5 0.5 0.5 0.5 0.5 0.5 0.5 0.5 0.5 0.5 0.5 0.5 0.5 0.5 0.5 0.5 0.5 0.5 0.5 0.5 0.5 0.5 0.5 0.5 0.5 0.5 0.5 0.5 0.5 0.5 0.449171 0.550829 0.0863388 0.9136612 0.899399 0.10060100000000005 0.820484 0.179516 0.5 0.5 0.5 0.5 0.5 0.5 0.5 0.5 0.5 0.5 0.5 0.5 0.5 0.5 0.5 0.5 0.5 0.5 0.5 0.5 0.5 0.5 0.5 0.5 0.5 0.5 0.5 0.5 0.5 0.5 0.5 0.5 0.5 0.5 0.5 0.5 0.5 0.5 0.5 0.5 0.5 0.5 0.5 0.5 0.816785 0.18321500000000002 0.240102 0.759898 0.794906 0.205094 0.418578 0.581422 0.5 0.5 0.5 0.5 0.5 0.5 0.5 0.5 0.5 0.5 0.5 0.5 0.5 0.5 0.5 0.5 0.574791 0.42520899999999995 0.901827 0.09817299999999995 0.30432 0.6956800000000001 0.341271 0.658729 0.5 0.5 0.5 0.5 0.5 0.5 0.5 0.5 0.5 0.5 0.5 0.5 0.5 0.5 0.5 0.5 0.5 0.5 0.5 0.5 0.5 0.5 0.5 0.5 0.5 0.5 0.5 0.5 0.5 0.5 0.5 0.5 0.5 0.5 0.5 0.5 0.5 0.5 0.5 0.5 0.5 0.5 0.5 0.5 0.5 0.5 0.5 0.5 0.5 0.5 0.5 0.5 0.5 0.5 0.5 0.5 0.5 0.5 0.5 0.5 0.5 0.5 0.5 0.5 0.5 0.5 0.5 0.5 0.5 0.5 0.5 0.5 0.5 0.5 0.5 0.5 0.5 0.5 0.5 0.5 0.5 0.5 0.5 0.5 0.5 0.5 0.5 0.5 0.5 0.5 0.5 0.5 0.5 0.5 0.5 0.5 0.5 0.5 0.5 0.5 0.5 0.5 0.5 0.5 0.5 0.5 0.5 0.5 0.5 0.5 0.5 0.5 0.5 0.5 0.5 0.5 0.5 0.5 0.5 0.5 0.5 0.5 0.5 0.5 0.5 0.5 0.5 0.5 0.5 0.5 0.5 0.5 0.5 0.5 0.5 0.5 0.5 0.5 0.5 0.5 0.5 0.5 0.5 0.5 0.5 0.5 0.5 0.5 0.5 0.5 0.5 0.5 0.5 0.5 0.5 0.5 0.5 0.5 0.5 0.5 0.5 0.5 0.5 0.5 0.5 0.5 0.5 0.5 0.5 0.5 0.5 0.5 0.5 0.5 0.5 0.5 0.369801 0.630199 0.409362 0.590638 0.769228 0.23077199999999998 0.422422 0.5775779999999999 0.5 0.5 0.5 0.5 0.5 0.5 0.5 0.5 0.5 0.5 0.5 0.5 0.5 0.5 0.5 0.5 0.192982 0.807018 0.643402 0.35659799999999997 0.738635 0.26136499999999996 0.00296822 0.99703178 0.792407 0.20759300000000003 0.666525 0.33347499999999997 0.159715 0.840285 0.134515 0.8654850000000001 0.5 0.5 0.5 0.5 0.5 0.5 0.5 0.5 0.5 0.5 0.5 0.5 0.5 0.5 0.5 0.5 0.5 0.5 0.5 0.5 0.5 0.5 0.5 0.5 0.5 0.5 0.5 0.5 0.5 0.5 0.5 0.5 0.5 0.5 0.5 0.5 0.5 0.5 0.5 0.5 0.5 0.5 0.5 0.5 0.5 0.5 0.5 0.5 0.5 0.5 0.5 0.5 0.5 0.5 0.5 0.5
-1 2 0
1 -2 0
-2 3 0
2 -3 0
-3 -4 0
3 4 0
-4 5 0
4 -5 0
-5 6 0
5 -6 0
-6 7 0
6 -7 0
-7 -8 0
7 8 0
-8 -9 0
8 9 0
-9 -10 0
9 10 0
-10 -215 11 0
-10 215 -11 0
10 -216 11 0
10 216 -11 0
-11 -12 0
11 12 0
-12 -13 0
12 13 0
-13 14 0
13 -14 0
-1 15 0
1 -15 0
-15 -2 16 0
-15 2 -16 0
15 -2 -16 0
15 2 -16 0
-16 -3 -17 0
-16 3 17 0
16 -3 -17 0
16 3 17 0
-17 -4 18 0
-17 4 18 0
17 -4 18 0
17 4 -18 0
-18 -5 19 0
-18 5 -19 0
18 -5 -19 0
18 5 -19 0
-19 -6 20 0
-19 6 20 0
19 -6 20 0
19 6 -20 0
-20 -7 -21 0
-20 7 -21 0
20 -7 -21 0
20 7 21 0
-21 -8 -22 0
-21 8 -22 0
21 -8 22 0
21 8 -22 0
-22 -9 -23 0
-22 9 23 0
22 -9 -23 0
22 9 23 0
-23 -10 24 0
-23 10 24 0
23 -10 -24 0
23 10 24 0
-24 -11 -25 0
-24 11 25 0
24 -11 25 0
24 11 25 0
-25 -12 -26 0
-25 12 -26 0
25 -12 -26 0
25 12 26 0
-26 -13 -269 27 0
-26 -13 269 -27 0
-26 13 -270 27 0
-26 13 270 -27 0
26 -13 -271 27 0
26 -13 271 -27 0
26 13 -272 27 0
26 13 272 -27 0
-27 -14 -28 0
-27 14 28 0
27 -14 -28 0
27 14 -28 0
-15 29 0
15 -29 0
-29 -16 30 0
-29 16 30 0
29 -16 30 0
29 16 -30 0
-30 -17 -31 0
-30 17 31 0
30 -17 31 0
30 17 -31 0
-31 -18 -32 0
-31 18 32 0
31 -18 32 0
31 18 -32 0
-32 -19 33 0
-32 19 -33 0
32 -19 33 0
32 19 33 0
-33 -20 34 0
-33 20 34 0
33 -20 -34 0
33 20 34 0
-34 -21 35 0
-34 21 35 0
34 -21 -35 0
34 21 35 0
-35 -22 -36 0
-35 22 36 0
35 -22 -36 0
35 22 36 0
-36 -23 37 0
-36 23 -37 0
36 -23 37 0
36 23 37 0
-37 -24 38 0
-37 24 -38 0
37 -24 -38 0
37 24 -38 0
-38 -25 39 0
-38 25 -39 0
38 -25 39 0
38 25 39 0
-39 -26 -40 0
-39 26 -40 0
39 -26 40 0
39 26 -40 0
-40 -27 41 0
-40 27 -41 0
40 -27 41 0
40 27 -41 0
-41 -28 -327 42 0
-41 -28 327 -42 0
-41 28 -328 42 0
-41 28 328 -42 0
41 -28 -329 42 0
41 -28 329 -42 0
41 28 -330 42 0
41 28 330 -42 0
-29 43 0
29 -43 0
-43 -30 -44 0
-43 30 44 0
43 -30 -44 0
43 30 -44 0
-44 -31 -337 45 0
-44 -31 337 -45 0
-44 31 -338 45 0
-44 31 338 -45 0
44 -31 -339 45 0
44 -31 339 -45 0
44 31 -340 45 0
44 31 340 -45 0
-45 -32 46 0
-45 32 -46 0
45 -32 -46 0
45 32 46 0
-46 -33 -47 0
-46 33 47 0
46 -33 -47 0
46 33 47 0
-47 -34 48 0
-47 34 48 0
47 -34 -48 0
47 34 48 0
-48 -35 -49 0
-48 35 -49 0
48 -35 49 0
48 35 49 0
-49 -36 -50 0
-49 36 50 0
49 -36 50 0
49 36 50 0
-50 -37 -51 0
-50 37 51 0
50 -37 51 0
50 37 51 0
-51 -38 -365 52 0
-51 -38 365 -52 0
-51 38 -366 52 0
-51 38 366 -52 0
51 -38 -367 52 0
51 -38 367 -52 0
51 38 -368 52 0
51 38 368 -52 0
-52 -39 53 0
-52 39 -53 0
52 -39 -53 0
52 39 53 0
-53 -40 54 0
-53 40 -54 0
53 -40 -54 0
53 40 54 0
-54 -41 -55 0
-54 41 -55 0
54 -41 55 0
54 41 55 0
-55 -42 -56 0
-55 42 -56 0
55 -42 56 0
55 42 56 0
-43 -57 0
43 57 0
-57 -44 58 0
-57 44 -58 0
57 -44 -58 0
57 44 -58 0
-58 -45 59 0
-58 45 -59 0
58 -45 59 0
58 45 59 0
-59 -46 60 0
-59 46 60 0
59 -46 60 0
59 46 -60 0
-60 -47 -399 61 0
-60 -47 399 -61 0
-60 47 -400 61 0
-60 47 400 -61 0
60 -47 -401 61 0
60 -47 401 -61 0
60 47 -402 61 0
60 47 402 -61 0
-61 -48 -62 0
-61 48 -62 0
61 -48 -62 0
61 48 62 0
-62 -49 63 0
-62 49 -63 0
62 -49 63 0
62 49 63 0
-63 -50 -411 64 0
-63 -50 411 -64 0
-63 50 -412 64 0
-63 50 412 -64 0
63 -50 -413 64 0
63 -50 413 -64 0
63 50 -414 64 0
63 50 414 -64 0
-64 -51 -65 0
-64 51 65 0
64 -51 -65 0
64 51 -65 0
-65 -52 -66 0
-65 52 66 0
65 -52 -66 0
65 52 66 0
-66 -53 67 0
-66 53 -67 0
66 -53 -67 0
66 53 67 0
-67 -54 68 0
-67 54 68 0
67 -54 68 0
67 54 -68 0
-68 -55 -69 0
-68 55 69 0
68 -55 69 0
68 55 69 0
-69 -56 -435 70 0
-69 -56 435 -70 0
-69 56 -436 70 0
-69 56 436 -70 0
69 -56 -437 70 0
69 -56 437 -70 0
69 56 -438 70 0
69 56 438 -70 0
-57 71 0
57 -71 0
-71 -58 72 0
-71 58 72 0
71 -58 -72 0
71 58 72 0
-72 -59 -445 73 0
-72 -59 445 -73 0
-72 59 -446 73 0
-72 59 446 -73 0
72 -59 -447 73 0
72 -59 447 -73 0
72 59 -448 73 0
72 59 448 -73 0
-73 -60 -449 74 0
-73 -60 449 -74 0
-73 60 -450 74 0
-73 60 450 -74 0
73 -60 -451 74 0
73 -60 451 -74 0
73 60 -452 74 0
73 60 452 -74 0
-74 -61 -75 0
-74 61 75 0
74 -61 75 0
74 61 -75 0
-75 -62 -76 0
-75 62 76 0
75 -62 -76 0
75 62 -76 0
-76 -63 -77 0
-76 63 77 0
76 -63 -77 0
76 63 77 0
-77 -64 78 0
-77 64 78 0
77 -64 -78 0
77 64 78 0
-78 -65 79 0
-78 65 79 0
78 -65 79 0
78 65 -79 0
-79 -66 80 0
-79 66 -80 0
79 -66 -80 0
79 66 80 0
-80 -67 81 0
-80 67 81 0
80 -67 -81 0
80 67 81 0
-81 -68 -82 0
-81 68 82 0
81 -68 -82 0
81 68 -82 0
-82 -69 -83 0
-82 69 -83 0
82 -69 83 0
82 69 -83 0
-83 -70 -84 0
-83 70 84 0
83 -70 84 0
83 70 84 0
-71 85 0
71 -85 0
-85 -72 -86 0
-85 72 -86 0
85 -72 86 0
85 72 86 0
-86 -73 -499 87 0
-86 -73 499 -87 0
-86 73 -500 87 0
-86 73 500 -87 0
86 -73 -501 87 0
86 -73 501 -87 0
86 73 -502 87 0
86 73 502 -87 0
-87 -74 88 0
-87 74 -88 0
87 -74 -88 0
87 74 -88 0
-88 -75 -89 0
-88 75 -89 0
88 -75 89 0
88 75 -89 0
-89 -76 90 0
-89 76 -90 0
89 -76 -90 0
89 76 90 0
-90 -77 91 0
-90 77 -91 0
90 -77 91 0
90 77 91 0
-91 -78 -519 92 0
-91 -78 519 -92 0
-91 78 -520 92 0
-91 78 520 -92 0
91 -78 -521 92 0
91 -78 521 -92 0
91 78 -522 92 0
91 78 522 -92 0
-92 -79 93 0
-92 79 -93 0
92 -79 -93 0
92 79 93 0
-93 -80 94 0
-93 80 94 0
93 -80 94 0
93 80 -94 0
-94 -81 95 0
-94 81 95 0
94 -81 -95 0
94 81 -95 0
-95 -82 -535 96 0
-95 -82 535 -96 0
-95 82 -536 96 0
-95 82 536 -96 0
95 -82 -537 96 0
95 -82 537 -96 0
95 82 -538 96 0
95 82 538 -96 0
-96 -83 97 0
-96 83 97 0
96 -83 97 0
96 83 -97 0
-97 -84 98 0
-97 84 -98 0
97 -84 -98 0
97 84 98 0
-85 99 0
85 -99 0
-99 -86 -100 0
-99 86 -100 0
99 -86 -100 0
99 86 100 0
-100 -87 101 0
-100 87 -101 0
100 -87 -101 0
100 87 -101 0
-101 -88 102 0
-101 88 -102 0
101 -88 102 0
101 88 -102 0
-102 -89 -103 0
-102 89 -103 0
102 -89 103 0
102 89 -103 0
-103 -90 -104 0
-103 90 104 0
103 -90 -104 0
103 90 -104 0
-104 -91 -105 0
-104 91 -105 0
104 -91 -105 0
104 91 105 0
-105 -92 -106 0
-105 92 106 0
105 -92 -106 0
105 92 106 0
-106 -93 -107 0
-106 93 107 0
106 -93 -107 0
106 93 -107 0
-107 -94 108 0
-107 94 -108 0
107 -94 -108 0
107 94 -108 0
-108 -95 -109 0
-108 95 -109 0
108 -95 109 0
108 95 -109 0
-109 -96 -589 110 0
-109 -96 589 -110 0
-109 96 -590 110 0
-109 96 590 -110 0
109 -96 -591 110 0
109 -96 591 -110 0
109 96 -592 110 0
109 96 592 -110 0
-110 -97 -111 0
-110 97 -111 0
110 -97 111 0
110 97 111 0
-111 -98 112 0
-111 98 112 0
111 -98 -112 0
111 98 -112 0
-99 -113 0
99 113 0
-113 -100 -114 0
-113 100 -114 0
113 -100 -114 0
113 100 114 0
-114 -101 -115 0
-114 101 115 0
114 -101 115 0
114 101 -115 0
-115 -102 -116 0
-115 102 -116 0
115 -102 -116 0
115 102 116 0
-116 -103 117 0
-116 103 -117 0
116 -103 -117 0
116 103 117 0
-117 -104 -118 0
-117 104 -118 0
117 -104 118 0
117 104 -118 0
-118 -105 119 0
-118 105 -119 0
118 -105 -119 0
118 105 119 0
-119 -106 120 0
-119 106 -120 0
119 -106 -120 0
119 106 -120 0
-120 -107 -631 121 0
-120 -107 631 -121 0
-120 107 -632 121 0
-120 107 632 -121 0
120 -107 -633 121 0
120 -107 633 -121 0
120 107 -634 121 0
120 107 634 -121 0
-121 -108 -122 0
-121 108 -122 0
121 -108 122 0
121 108 122 0
-122 -109 123 0
-122 109 -123 0
122 -109 -123 0
122 109 -123 0
-123 -110 124 0
-123 110 -124 0
123 -110 124 0
123 110 124 0
-124 -111 -125 0
-124 111 125 0
124 -111 125 0
124 111 125 0
-125 -112 -126 0
-125 112 126 0
125 -112 126 0
125 112 -126 0
-113 127 0
113 -127 0
-127 -114 -128 0
-127 114 128 0
127 -114 128 0
127 114 -128 0
-128 -115 129 0
-128 115 129 0
128 -115 129 0
128 115 -129 0
-129 -116 130 0
-129 116 130 0
129 -116 -130 0
129 116 -130 0
-130 -117 -131 0
-130 117 131 0
130 -117 131 0
130 117 131 0
-131 -118 -132 0
-131 118 132 0
131 -118 -132 0
131 118 -132 0
-132 -119 -133 0
-132 119 133 0
132 -119 133 0
132 119 -133 0
-133 -120 -134 0
-133 120 -134 0
133 -120 -134 0
133 120 134 0
-134 -121 -135 0
-134 121 -135 0
134 -121 135 0
134 121 -135 0
-135 -122 -689 136 0
-135 -122 689 -136 0
-135 122 -690 136 0
-135 122 690 -136 0
135 -122 -691 136 0
135 -122 691 -136 0
135 122 -692 136 0
135 122 692 -136 0
-136 -123 -137 0
-136 123 -137 0
136 -123 -137 0
136 123 137 0
-137 -124 138 0
-137 124 138 0
137 -124 138 0
137 124 -138 0
-138 -125 -139 0
-138 125 -139 0
138 -125 139 0
138 125 139 0
-139 -126 -140 0
-139 126 140 0
139 -126 -140 0
139 126 -140 0
-127 -141 0
127 141 0
-141 -128 142 0
-141 128 142 0
141 -128 142 0
141 128 -142 0
-142 -129 143 0
-142 129 -143 0
142 -129 -143 0
142 129 -143 0
-143 -130 -144 0
-143 130 144 0
143 -130 144 0
143 130 -144 0
-144 -131 -145 0
-144 131 -145 0
144 -131 145 0
144 131 -145 0
-145 -132 146 0
-145 132 -146 0
145 -132 146 0
145 132 -146 0
-146 -133 -147 0
-146 133 147 0
146 -133 -147 0
146 133 147 0
-147 -134 148 0
-147 134 -148 0
147 -134 148 0
147 134 148 0
-148 -135 -149 0
-148 135 -149 0
148 -135 -149 0
148 135 149 0
-149 -136 -150 0
-149 136 -150 0
149 -136 150 0
149 136 150 0
-150 -137 -747 151 0
-150 -137 747 -151 0
-150 137 -748 151 0
-150 137 748 -151 0
150 -137 -749 151 0
150 -137 749 -151 0
150 137 -750 151 0
150 137 750 -151 0
-151 -138 152 0
-151 138 152 0
151 -138 -152 0
151 138 152 0
-152 -139 -153 0
-152 139 153 0
152 -139 153 0
152 139 153 0
-153 -140 -154 0
-153 140 154 0
153 -140 154 0
153 140 154 0
-141 155 0
141 -155 0
-155 -142 -156 0
-155 142 -156 0
155 -142 -156 0
155 142 156 0
-156 -143 -157 0
-156 143 -157 0
156 -143 157 0
156 143 -157 0
-157 -144 -773 158 0
-157 -144 773 -158 0
-157 144 -774 158 0
-157 144 774 -158 0
157 -144 -775 158 0
157 -144 775 -158 0
157 144 -776 158 0
157 144 776 -158 0
-158 -145 159 0
-158 145 -159 0
158 -145 159 0
158 145 -159 0
-159 -146 -160 0
-159 146 160 0
159 -146 -160 0
159 146 -160 0
-160 -147 -785 161 0
-160 -147 785 -161 0
-160 147 -786 161 0
-160 147 786 -161 0
160 -147 -787 161 0
160 -147 787 -161 0
160 147 -788 161 0
160 147 788 -161 0
-161 -148 -162 0
-161 148 -162 0
161 -148 162 0
161 148 162 0
-162 -149 163 0
-162 149 163 0
162 -149 -163 0
162 149 -163 0
-163 -150 164 0
-163 150 -164 0
163 -150 -164 0
163 150 -164 0
-164 -151 -165 0
-164 151 165 0
164 -151 -165 0
164 151 165 0
-165 -152 -166 0
-165 152 166 0
165 -152 166 0
165 152 -166 0
-166 -153 167 0
-166 153 -167 0
166 -153 -167 0
166 153 -167 0
-167 -154 168 0
-167 154 -168 0
167 -154 168 0
167 154 -168 0
-155 169 0
155 -169 0
-169 -156 -170 0
-169 156 170 0
169 -156 170 0
169 156 170 0
-170 -157 171 0
-170 157 -171 0
170 -157 -171 0
170 157 171 0
-171 -158 -172 0
-171 158 -172 0
171 -158 -172 0
171 158 172 0
-172 -159 173 0
-172 159 -173 0
172 -159 -173 0
172 159 173 0
-173 -160 -174 0
-173 160 -174 0
173 -160 -174 0
173 160 174 0
-174 -161 175 0
-174 161 -175 0
174 -161 175 0
174 161 -175 0
-175 -162 176 0
-175 162 -176 0
175 -162 -176 0
175 162 -176 0
-176 -163 177 0
-176 163 -177 0
176 -163 177 0
176 163 177 0
-177 -164 -178 0
-177 164 178 0
177 -164 -178 0
177 164 178 0
-178 -165 179 0
-178 165 -179 0
178 -165 179 0
178 165 -179 0
-179 -166 180 0
-179 166 180 0
179 -166 180 0
179 166 -180 0
-180 -167 -181 0
-180 167 181 0
180 -167 -181 0
180 167 181 0
-181 -168 -182 0
-181 168 182 0
181 -168 182 0
181 168 -182 0
-169 183 0
169 -183 0
-183 -170 184 0
-183 170 -184 0
183 -170 -184 0
183 170 184 0
-184 -171 -877 185 0
-184 -171 877 -185 0
-184 171 -878 185 0
-184 171 878 -185 0
184 -171 -879 185 0
184 -171 879 -185 0
184 171 -880 185 0
184 171 880 -185 0
-185 -172 -186 0
-185 172 186 0
185 -172 186 0
185 172 186 0
-186 -173 -187 0
-186 173 -187 0
186 -173 187 0
186 173 187 0
-187 -174 -889 188 0
-187 -174 889 -188 0
-187 174 -890 188 0
-187 174 890 -188 0
187 -174 -891 188 0
187 -174 891 -188 0
187 174 -892 188 0
187 174 892 -188 0
-188 -175 -893 189 0
-188 -175 893 -189 0
-188 175 -894 189 0
-188 175 894 -189 0
188 -175 -895 189 0
188 -175 895 -189 0
188 175 -896 189 0
188 175 896 -189 0
-189 -176 190 0
-189 176 190 0
189 -176 190 0
189 176 -190 0
-190 -177 191 0
-190 177 191 0
190 -177 191 0
190 177 -191 0
-191 -178 192 0
-191 178 -192 0
191 -178 -192 0
191 178 -192 0
-192 -179 -193 0
-192 179 193 0
192 -179 -193 0
192 179 -193 0
-193 -180 -194 0
-193 180 194 0
193 -180 -194 0
193 180 -194 0
-194 -181 195 0
-194 181 -195 0
194 -181 195 0
194 181 195 0
-195 -182 -196 0
-195 182 -196 0
195 -182 196 0
195 182 -196 0
196 0
