data/benchmarks/bayes/90-14-4-q.gr
p tw 924 789
67 68
177 190
99 100
26 39
136 149
150 749
59 73
159 160
8 9
118 131
40 41
77 90
27 269
100 101
132 133
91 519
92 106
107 634
192 193
41 42
151 164
73 74
73 501
110 123
33 47
133 134
125 139
51 64
74 75
106 107
143 156
63 411
66 80
166 167
15 16
47 48
158 172
7 21
107 108
26 272
187 891
99 113
48 49
80 81
40 54
28 327
64 411
82 536
135 691
38 368
74 452
132 146
144 776
81 82
25 38
136 692
73 87
173 174
22 23
70 436
165 179
59 445
14 28
31 337
114 115
106 120
175 894
147 786
55 56
60 400
47 61
147 148
73 446
139 153
189 895
80 94
107 633
172 186
137 750
181 182
87 502
173 187
84 97
176 189
158 171
117 130
96 592
21 22
73 450
58 71
147 161
113 114
150 163
82 535
135 690
38 367
74 451
91 522
54 55
42 328
91 104
132 145
144 775
171 878
146 147
32 45
70 435
165 178
87 88
124 137
52 368
63 414
179 180
106 119
147 785
65 78
60 399
88 89
120 121
157 170
6 19
180 181
73 445
29 30
139 152
61 62
98 111
21 35
121 122
189 894
120 633
153 154
80 93
2 3
113 127
39 52
62 63
172 185
47 401
94 95
131 144
54 68
121 634
13 27
137 749
3 4
35 36
87 501
72 85
146 160
105 119
95 96
127 128
164 177
31 340
87 101
187 188
46 60
36 37
78 519
68 69
179 193
174 892
28 42
151 750
128 129
160 161
120 134
96 591
79 93
73 449
69 70
101 102
61 75
161 162
20 34
10 11
153 167
2 16
42 327
102 103
171 877
110 592
94 108
194 195
158 776
53 67
43 44
86 500
35 49
135 136
69 438
52 367
127 141
38 51
185 878
86 100
45 337
76 77
68 82
161 786
27 41
160 174
72 448
189 893
101 115
120 632
12 25
60 74
47 400
1 15
121 633
13 26
105 118
9 10
46 59
174 891
151 749
138 151
19 32
79 92
122 691
134 135
171 184
20 33
75 76
112 125
110 591
41 330
16 17
158 775
53 66
108 109
86 499
145 158
69 437
52 366
49 50
185 877
86 99
78 522
109 110
178 191
161 785
27 40
50 51
10 216
82 83
119 132
42 56
72 447
142 143
120 631
23 24
134 148
60 73
83 84
115 116
47 399
152 165
75 89
175 176
34 48
24 25
61 401
93 106
13 272
16 30
44 339
116 117
157 774
96 535
108 122
160 788
67 81
57 58
51 365
167 168
89 90
126 139
45 340
49 63
159 173
149 150
8 22
60 450
109 590
92 519
30 31
188 892
100 114
90 91
122 690
82 96
41 55
31 32
141 142
23 37
133 147
123 124
110 590
115 129
41 329
95 538
74 88
64 65
174 175
50 414
56 70
156 157
166 180
15 29
5 6
150 748
59 72
107 121
97 98
167 181
89 103
189 190
48 62
148 149
92 105
188 896
10 215
30 44
140 154
72 446
73 500
33 46
56 438
81 95
184 880
141 155
125 138
22 36
122 123
34 47
66 79
61 400
114 128
157 773
44 338
174 188
7 20
55 69
26 271
160 787
67 80
187 890
159 172
8 21
60 449
109 589
40 53
27 272
63 64
188 891
100 113
148 162
4 5
41 54
136 691
73 86
133 146
181 195
14 27
37 38
41 328
74 87
95 537
122 136
175 893
166 179
47 60
150 747
107 120
51 368
130 131
167 180
11 12
48 61
28 330
64 414
107 632
140 153
163 164
73 499
44 45
56 437
81 94
173 186
22 35
59 448
155 156
61 399
114 127
137 138
174 187
96 97
18 19
55 68
26 270
88 102
188 189
187 889
147 160
180 194
170 171
29 43
129 130
27 271
135 689
121 135
111 112
38 366
74 450
91 521
148 161
144 774
62 76
162 163
136 690
154 168
144 145
3 17
181 194
103 104
95 536
95 109
85 86
63 413
122 135
195 196
155 169
177 178
36 50
136 137
96 110
128 142
118 119
77 78
21 34
69 83
169 170
28 329
64 413
82 538
129 143
161 175
107 631
151 152
10 24
110 111
54 67
102 116
137 748
51 52
87 500
146 159
162 176
70 438
43 57
143 144
59 447
31 339
103 117
87 100
135 149
175 896
147 788
179 192
60 402
28 41
76 90
26 269
88 101
136 150
120 133
168 182
96 590
73 448
180 193
77 91
61 74
121 134
169 183
153 166
38 365
74 449
91 520
2 15
144 773
25 26
62 75
110 124
94 107
154 167
3 16
51 65
35 48
95 108
17 18
63 412
143 157
9 23
36 49
68 81
128 141
160 173
73 452
69 82
101 114
82 537
135 692
161 174
10 23
42 330
171 880
102 115
121 632
137 747
87 499
70 437
176 177
31 338
135 148
17 31
147 787
117 118
174 890
60 401
151 748
76 89
109 123
11 216
58 59
168 181
96 589
73 447
191 192
50 64
150 151
189 896
142 156
91 92
83 97
183 184
32 33
158 774
175 189
165 166
24 38
124 125
84 98
69 436
52 365
116 130
65 66
176 190
9 22
78 521
57 71
157 158
6 7
117 131
149 163
139 140
73 451
58 72
42 55
90 104
190 191
39 40
150 164
134 147
182 196
172 173
31 45
131 132
42 329
91 105
75 88
171 879
123 137
121 631
72 73
13 271
16 29
32 46
64 78
164 165
86 502
124 138
108 121
156 170
5 19
185 880
17 30
45 339
65 79
49 62
174 889
97 111
151 747
109 122
157 171
11 215
161 788
6 20
122 689
50 63
98 112
82 95
120 634
142 155
39 53
23 36
47 402
83 96
131 145
110 589
115 128
158 773
175 188
24 37
72 86
50 413
56 69
69 435
116 129
38 39
96 538
164 178
78 520
89 102
92 522
149 162
71 72
188 895
30 43
63 77
72 445
90 103
12 13
4 18
182 195
104 105
184 879
31 44
13 14
123 136
45 46
105 106
37 51
13 270
44 337
64 77
86 501
46 47
156 169
160 786
78 79
5 18
38 52
185 879
138 139
45 338
70 84
97 110
19 20
130 144
161 787
79 80
11 25
188 890
71 85
171 172
20 21
52 53
163 177
12 26
44 58
104 118
53 54
41 327
45 59
145 146
50 412
157 776
26 27
137 151
96 537
86 87
18 32
51 367
78 92
178 179
27 28
138 152
60 452
109 592
92 521
170 184
19 33
119 120
188 894
63 76
122 692
111 125
60 61
171 185
56 436
4 17
52 66
184 878
152 153
1 2
112 126
144 158
93 94
37 50
13 269
85 99
185 186
145 159
177 191
160 785
26 40
150 750
70 83
186 187
118 132
130 143
178 192
27 270
11 24
188 889
119 133
151 165
73 502
136 689
163 176
44 57
104 117
152 166
95 535
45 58
61 402
93 107
193 194
50 411
44 340
157 775
137 150
59 60
96 536
96 109
18 31
187 892
51 366
78 91
126 140
60 451
109 591
92 520
28 328
64 412
92 93
129 142
170 183
188 893
184 185
111 124
33 34
56 435
25 39
125 126
52 65
162 175
184 877
34 35
144 157
59 446
66 67
103 116
158 159
175 895
7 8
